NAME : pairs_raw.txt.388501.tour
COMMENT : Length = 388501
COMMENT : Found by LKH [Keld Helsgaun] Tue Sep 17 10:38:03 2013
TYPE : TOUR
DIMENSION : 40
TOUR_SECTION
1
4
11
26
6
13
19
17
16
14
28
21
15
7
27
23
18
5
38
32
3
24
35
12
29
30
39
25
20
37
31
22
2
8
9
36
33
40
10
34
-1
EOF
